p cnf 35 83
1 2 3 4 0
-1 -2 0
-1 -3 0
-1 -4 0
-2 -3 0
-2 -4 0
-3 -4 0
5 6 0
-5 -6 0
7 8 9 0
-7 -8 0
-7 -9 0
-8 -9 0
10 11 12 0
-10 -11 0
-10 -12 0
-11 -12 0
13 14 15 0
-13 -14 0
-13 -15 0
-14 -15 0
16 17 18 19 20 0
-16 -17 0
-16 -18 0
-16 -19 0
-16 -20 0
-17 -18 0
-17 -19 0
-17 -20 0
-18 -19 0
-18 -20 0
-19 -20 0
21 22 23 0
-21 -22 0
-21 -23 0
-22 -23 0
24 25 26 0
-24 -25 0
-24 -26 0
-25 -26 0
27 28 29 0
-27 -28 0
-27 -29 0
-28 -29 0
30 31 32 0
-30 -31 0
-30 -32 0
-31 -32 0
33 34 35 0
-33 -34 0
-33 -35 0
-34 -35 0
-1 -21 0
-3 -22 0
-4 -23 0
-1 -30 0
-3 -31 0
-4 -32 0
-6 -15 0
-6 -23 0
-6 -26 0
-8 -11 0
-9 -12 0
-7 -17 0
-8 -18 0
-9 -20 0
-8 -24 0
-9 -26 0
-8 -31 0
-9 -32 0
-14 -24 0
-15 -26 0
-14 -33 0
-15 -35 0
-18 -24 0
-19 -25 0
-20 -26 0
-16 -27 0
-17 -28 0
-20 -29 0
-24 -31 0
-26 -32 0
-29 -35 0
